SDVRP instances/custom_instances/p04_29_split0.vrp
NAME:p04_29_split
BEST_KNOWN: 0
COMMENT: 0
DIMENSION: 700
CAPACITY: 200
EDGE_WEIGHT_FORMAT: FUNCTION
EDGE_WEIGHT_TYPE: EXACT_2D
NODE_COORD_SECTION
1 0.00000 0.00000
2 -44 -49
3 -44 -49
4 -44 -49
5 -44 -49
6 -44 -49
7 -16 30
8 -16 30
9 -16 30
10 -36 19
11 -36 19
12 -36 19
13 -36 19
14 -28 -28
15 -28 -28
16 -19 -5
17 -19 -5
18 27 -28
19 27 -28
20 27 -28
21 27 -28
22 27 -28
23 27 -28
24 27 -28
25 27 -28
26 -19 -20
27 -19 -20
28 -19 -20
29 -19 -20
30 -19 -20
31 41 -48
32 41 -48
33 41 -48
34 41 -48
35 41 -48
36 41 -48
37 45 -13
38 45 -13
39 -11 -47
40 -11 -47
41 -11 -47
42 -11 -47
43 -11 -47
44 -11 -47
45 -11 -47
46 24 34
47 24 34
48 24 34
49 24 34
50 24 34
51 18 14
52 18 14
53 18 14
54 18 14
55 18 14
56 -16 36
57 -16 36
58 -16 36
59 -3 12
60 -3 12
61 -3 12
62 -3 12
63 -30 -40
64 -30 -40
65 -30 -40
66 -30 -40
67 -8 16
68 -8 16
69 -8 16
70 -8 16
71 -8 16
72 -8 16
73 -27 -25
74 -27 -25
75 -27 -25
76 -27 -25
77 -27 -25
78 16 -45
79 16 -45
80 16 -45
81 16 -45
82 0 17
83 0 17
84 13 35
85 13 35
86 13 35
87 13 35
88 13 35
89 15 3
90 15 3
91 15 3
92 15 3
93 0 -50
94 0 -50
95 0 -50
96 0 -50
97 0 -50
98 43 -20
99 43 -20
100 43 -20
101 43 -20
102 43 -20
103 43 -20
104 -15 -13
105 -15 -13
106 -15 -13
107 -43 45
108 -43 45
109 -43 45
110 -43 45
111 -43 45
112 29 -40
113 29 -40
114 29 -40
115 29 -40
116 29 -40
117 29 -40
118 29 -40
119 26 14
120 26 14
121 26 14
122 26 14
123 26 14
124 26 14
125 -25 39
126 -25 39
127 -25 39
128 -25 39
129 -25 39
130 -25 39
131 -25 39
132 -39 -21
133 -39 -21
134 -39 -21
135 -39 -21
136 -39 -21
137 -39 -21
138 -39 -21
139 -17 4
140 -17 4
141 -17 4
142 -17 4
143 -17 4
144 10 -45
145 10 -45
146 10 -45
147 40 -29
148 40 -29
149 40 -29
150 40 -29
151 40 -29
152 40 -29
153 40 -29
154 43 12
155 43 12
156 43 12
157 -18 -18
158 -18 -18
159 -18 -18
160 -18 -18
161 27 44
162 27 44
163 27 44
164 28 -6
165 28 -6
166 19 29
167 19 29
168 19 29
169 19 29
170 19 29
171 19 29
172 19 29
173 34 1
174 34 1
175 34 1
176 34 1
177 34 1
178 45 -43
179 45 -43
180 45 -43
181 -12 -40
182 -12 -40
183 -12 -40
184 -12 -40
185 -12 -40
186 -12 -40
187 22 41
188 22 41
189 22 41
190 22 41
191 -7 20
192 -7 20
193 -7 20
194 -7 20
195 -7 20
196 -7 20
197 -9 41
198 -9 41
199 -9 41
200 -9 41
201 -9 41
202 -21 -8
203 -21 -8
204 -21 -8
205 -21 -8
206 -21 -8
207 -30 37
208 -30 37
209 -30 37
210 -30 37
211 32 -41
212 32 -41
213 32 -41
214 32 -41
215 -1 -21
216 -1 -21
217 -1 -21
218 -1 -21
219 4 11
220 4 11
221 4 11
222 36 -8
223 36 -8
224 36 -8
225 36 -8
226 41 -25
227 41 -25
228 41 -25
229 11 -17
230 11 -17
231 11 -17
232 11 -17
233 11 -17
234 -3 -29
235 -3 -29
236 -3 -29
237 12 -49
238 12 -49
239 12 -49
240 12 -49
241 12 -49
242 7 -48
243 7 -48
244 7 -48
245 7 -48
246 7 -48
247 -37 -39
248 -37 -39
249 -37 -39
250 -37 -39
251 -37 -39
252 -37 -39
253 11 25
254 11 25
255 11 25
256 11 25
257 11 25
258 11 25
259 42 36
260 42 36
261 42 36
262 42 36
263 42 36
264 18 -4
265 18 -4
266 18 -4
267 18 -4
268 18 -4
269 18 -4
270 -46 8
271 -46 8
272 -46 8
273 -46 8
274 -46 8
275 -46 8
276 -46 8
277 3 0
278 3 0
279 3 0
280 3 0
281 3 0
282 3 0
283 -48 -3
284 -48 -3
285 -48 -3
286 -48 -3
287 -48 -3
288 -48 -3
289 44 -30
290 44 -30
291 44 -30
292 44 -30
293 44 -30
294 44 -30
295 -48 -17
296 -48 -17
297 -48 -17
298 -10 -23
299 -10 -23
300 -10 -23
301 -10 -23
302 16 39
303 16 39
304 16 39
305 16 39
306 16 39
307 -47 12
308 -47 12
309 -47 12
310 -47 12
311 -47 12
312 -47 12
313 -47 12
314 -41 28
315 -41 28
316 -41 28
317 -41 28
318 -41 28
319 -37 47
320 -37 47
321 -37 47
322 -37 47
323 -37 47
324 -32 12
325 -32 12
326 -32 12
327 -32 12
328 -32 12
329 43 -30
330 43 -30
331 43 -30
332 43 -30
333 43 -30
334 43 -30
335 44 6
336 44 6
337 -11 -11
338 -11 -11
339 -11 -11
340 -34 37
341 -34 37
342 -48 22
343 -48 22
344 -48 22
345 -50 -32
346 -50 -32
347 -50 -32
348 -50 -32
349 -50 -32
350 -50 -32
351 -50 -32
352 -42 27
353 -42 27
354 -42 27
355 -42 27
356 26 -37
357 26 -37
358 26 -37
359 27 43
360 27 43
361 27 43
362 27 43
363 27 43
364 2 40
365 2 40
366 2 40
367 2 40
368 2 40
369 30 -38
370 30 -38
371 30 -38
372 30 -38
373 30 -38
374 30 -38
375 37 27
376 37 27
377 37 27
378 37 27
379 37 27
380 37 27
381 37 27
382 -24 47
383 -24 47
384 45 21
385 45 21
386 45 21
387 45 21
388 45 21
389 45 21
390 45 21
391 45 21
392 15 19
393 15 19
394 15 19
395 15 19
396 15 19
397 15 19
398 -9 -20
399 -9 -20
400 -9 -20
401 -9 -20
402 -9 -20
403 -9 -20
404 -9 -20
405 -21 42
406 -21 42
407 -21 42
408 -21 42
409 -21 42
410 -21 42
411 -21 42
412 -22 -21
413 -22 -21
414 -22 -21
415 -22 -21
416 -22 -21
417 -22 -21
418 -19 6
419 -19 6
420 -15 36
421 -15 36
422 -15 36
423 -15 36
424 -2 -1
425 -2 -1
426 -2 -1
427 -2 -1
428 -2 -1
429 -2 -1
430 -2 -1
431 41 11
432 41 11
433 41 11
434 41 11
435 41 11
436 46 32
437 46 32
438 46 32
439 46 32
440 46 32
441 -24 36
442 -24 36
443 -24 36
444 13 44
445 13 44
446 13 44
447 13 44
448 13 44
449 13 44
450 13 44
451 27 9
452 27 9
453 2 18
454 2 18
455 2 18
456 2 18
457 2 18
458 39 35
459 39 35
460 39 35
461 39 35
462 -9 -42
463 -9 -42
464 -9 -42
465 -47 14
466 -47 14
467 -47 14
468 -47 14
469 -47 14
470 -4 26
471 -4 26
472 -4 26
473 -4 26
474 -4 26
475 -12 3
476 -12 3
477 -12 3
478 -12 3
479 -12 3
480 16 -16
481 16 -16
482 16 -16
483 16 -16
484 -11 43
485 -11 43
486 -11 43
487 -11 43
488 -11 43
489 -11 43
490 -11 43
491 43 -16
492 43 -16
493 43 -16
494 43 -16
495 16 10
496 16 10
497 16 10
498 16 10
499 27 21
500 27 21
501 -11 43
502 -11 43
503 -11 43
504 -10 -20
505 -10 -20
506 -10 -20
507 -10 -20
508 -15 8
509 -15 8
510 -15 8
511 -15 8
512 -15 8
513 -15 8
514 -39 -26
515 -39 -26
516 -39 -26
517 -39 -26
518 -39 -26
519 46 15
520 46 15
521 46 15
522 46 15
523 27 -11
524 27 -11
525 27 -11
526 27 -11
527 27 -11
528 -34 -29
529 -34 -29
530 -34 -29
531 -34 -29
532 -34 -29
533 -34 -29
534 50 39
535 50 39
536 50 39
537 50 39
538 -45 41
539 -45 41
540 -45 41
541 -45 41
542 -45 41
543 -45 41
544 -45 41
545 -43 -43
546 -43 -43
547 -43 -43
548 -43 -43
549 -43 -43
550 -43 -20
551 -43 -20
552 -43 -20
553 -43 -20
554 -45 -3
555 -45 -3
556 -45 -3
557 -45 -3
558 3 -28
559 3 -28
560 3 -28
561 -50 -3
562 -50 -3
563 -40 -30
564 -40 -30
565 -40 -30
566 -7 5
567 -7 5
568 -7 5
569 -7 5
570 -33 -20
571 -33 -20
572 -33 -20
573 -33 -20
574 -33 -20
575 22 37
576 22 37
577 -18 21
578 -18 21
579 -18 21
580 34 -27
581 34 -27
582 34 -27
583 34 -27
584 34 -27
585 34 -27
586 34 -27
587 4 -49
588 4 -49
589 4 -49
590 4 -49
591 -15 -4
592 -15 -4
593 -15 -4
594 -15 -4
595 -20 -48
596 -20 -48
597 -20 -48
598 -20 -48
599 -20 -48
600 -20 -48
601 -20 -48
602 -27 -23
603 -27 -23
604 -27 -23
605 -27 -23
606 4 41
607 4 41
608 -1 47
609 -1 47
610 -1 47
611 -1 47
612 -1 47
613 -1 47
614 1 28
615 1 28
616 1 28
617 1 28
618 1 28
619 29 -28
620 29 -28
621 29 -28
622 29 -28
623 29 -28
624 29 -28
625 29 -28
626 -24 1
627 -24 1
628 -41 4
629 -41 4
630 -41 4
631 -41 4
632 -41 4
633 -41 4
634 -41 4
635 48 23
636 48 23
637 48 23
638 48 23
639 48 23
640 21 -14
641 21 -14
642 21 -14
643 21 -14
644 21 -14
645 10 -6
646 10 -6
647 10 -6
648 10 -6
649 10 -6
650 4 -3
651 4 -3
652 4 -3
653 4 -3
654 -28 35
655 -28 35
656 -28 35
657 -3 -5
658 -3 -5
659 -3 -5
660 -3 -5
661 -3 -5
662 -3 -5
663 37 11
664 37 11
665 37 11
666 37 11
667 37 11
668 -11 -45
669 -11 -45
670 -11 -45
671 -11 -45
672 -11 -45
673 -43 49
674 -43 49
675 -43 49
676 -43 49
677 -43 49
678 38 10
679 38 10
680 6 -49
681 6 -49
682 6 -49
683 6 -49
684 20 -25
685 20 -25
686 20 -25
687 20 -25
688 20 -25
689 20 -25
690 -3 -34
691 -3 -34
692 -3 -34
693 -3 -34
694 -3 -34
695 7 -40
696 7 -40
697 7 -40
698 7 -40
699 7 -40
700 7 -40
DEMAND_SECTION
1 0
2 40
3 20
4 10
5 2
6 2
7 40
8 10
9 2
10 20
11 10
12 2
13 1
14 40
15 1
16 40
17 20
18 40
19 20
20 10
21 2
22 2
23 2
24 2
25 1
26 40
27 40
28 10
29 2
30 2
31 40
32 40
33 2
34 2
35 2
36 1
37 40
38 10
39 40
40 20
41 2
42 2
43 2
44 2
45 1
46 40
47 40
48 10
49 2
50 2
51 40
52 40
53 10
54 2
55 1
56 40
57 20
58 10
59 40
60 20
61 10
62 2
63 40
64 20
65 2
66 1
67 40
68 20
69 2
70 2
71 2
72 1
73 20
74 2
75 2
76 2
77 1
78 40
79 40
80 10
81 1
82 40
83 1
84 40
85 40
86 2
87 2
88 1
89 40
90 10
91 2
92 1
93 20
94 2
95 2
96 2
97 2
98 20
99 10
100 2
101 2
102 2
103 1
104 40
105 40
106 2
107 40
108 20
109 2
110 2
111 2
112 40
113 20
114 10
115 2
116 2
117 2
118 2
119 40
120 40
121 10
122 2
123 2
124 2
125 40
126 40
127 10
128 2
129 2
130 2
131 1
132 40
133 40
134 10
135 2
136 2
137 2
138 2
139 40
140 20
141 10
142 2
143 2
144 40
145 40
146 2
147 40
148 40
149 10
150 2
151 2
152 2
153 1
154 40
155 40
156 2
157 20
158 2
159 2
160 1
161 40
162 10
163 1
164 20
165 10
166 40
167 20
168 10
169 2
170 2
171 2
172 1
173 40
174 40
175 2
176 2
177 2
178 40
179 20
180 1
181 40
182 40
183 10
184 2
185 2
186 1
187 40
188 20
189 2
190 1
191 40
192 40
193 10
194 2
195 2
196 2
197 20
198 2
199 2
200 2
201 1
202 40
203 20
204 10
205 2
206 1
207 40
208 40
209 10
210 1
211 40
212 40
213 10
214 2
215 40
216 40
217 10
218 2
219 40
220 40
221 2
222 40
223 40
224 10
225 1
226 40
227 10
228 1
229 40
230 40
231 10
232 2
233 1
234 40
235 40
236 2
237 40
238 20
239 10
240 2
241 2
242 40
243 40
244 10
245 2
246 1
247 40
248 20
249 10
250 2
251 2
252 2
253 40
254 40
255 2
256 2
257 2
258 1
259 20
260 10
261 2
262 2
263 1
264 40
265 40
266 2
267 2
268 2
269 1
270 40
271 40
272 2
273 2
274 2
275 2
276 1
277 40
278 40
279 2
280 2
281 2
282 1
283 40
284 20
285 2
286 2
287 2
288 2
289 40
290 20
291 2
292 2
293 2
294 2
295 40
296 2
297 1
298 40
299 20
300 10
301 1
302 40
303 20
304 10
305 2
306 2
307 40
308 20
309 10
310 2
311 2
312 2
313 1
314 40
315 20
316 2
317 2
318 2
319 40
320 40
321 10
322 2
323 1
324 40
325 20
326 10
327 2
328 1
329 40
330 2
331 2
332 2
333 2
334 1
335 40
336 10
337 40
338 10
339 2
340 40
341 1
342 40
343 40
344 20
345 40
346 10
347 2
348 2
349 2
350 2
351 1
352 40
353 40
354 2
355 1
356 20
357 10
358 2
359 40
360 10
361 2
362 2
363 2
364 40
365 20
366 2
367 2
368 1
369 40
370 10
371 2
372 2
373 2
374 2
375 20
376 10
377 2
378 2
379 2
380 2
381 1
382 40
383 20
384 40
385 20
386 10
387 2
388 2
389 2
390 2
391 1
392 20
393 10
394 2
395 2
396 2
397 1
398 40
399 20
400 2
401 2
402 2
403 2
404 1
405 40
406 20
407 10
408 2
409 2
410 2
411 1
412 40
413 20
414 10
415 2
416 2
417 1
418 20
419 10
420 20
421 10
422 2
423 1
424 40
425 20
426 10
427 2
428 2
429 2
430 2
431 40
432 20
433 10
434 2
435 1
436 40
437 20
438 10
439 2
440 1
441 20
442 10
443 2
444 40
445 40
446 2
447 2
448 2
449 2
450 1
451 40
452 10
453 40
454 2
455 2
456 2
457 1
458 40
459 10
460 2
461 1
462 40
463 40
464 10
465 40
466 20
467 10
468 2
469 1
470 40
471 10
472 2
473 2
474 1
475 40
476 10
477 2
478 2
479 1
480 40
481 2
482 2
483 1
484 40
485 20
486 2
487 2
488 2
489 2
490 1
491 40
492 20
493 10
494 2
495 20
496 10
497 2
498 2
499 40
500 20
501 40
502 20
503 10
504 40
505 20
506 2
507 2
508 40
509 40
510 10
511 2
512 2
513 2
514 40
515 10
516 2
517 2
518 2
519 40
520 40
521 10
522 2
523 40
524 2
525 2
526 2
527 1
528 40
529 2
530 2
531 2
532 2
533 1
534 40
535 40
536 2
537 2
538 40
539 40
540 10
541 2
542 2
543 2
544 2
545 20
546 10
547 2
548 2
549 1
550 40
551 40
552 2
553 2
554 40
555 10
556 2
557 1
558 40
559 2
560 1
561 40
562 20
563 40
564 20
565 2
566 40
567 40
568 2
569 2
570 40
571 20
572 10
573 2
574 1
575 20
576 10
577 40
578 2
579 2
580 40
581 40
582 10
583 2
584 2
585 2
586 1
587 40
588 20
589 10
590 2
591 40
592 20
593 10
594 2
595 40
596 20
597 10
598 2
599 2
600 2
601 2
602 20
603 2
604 2
605 2
606 40
607 40
608 40
609 20
610 2
611 2
612 2
613 2
614 40
615 20
616 10
617 2
618 2
619 40
620 10
621 2
622 2
623 2
624 2
625 1
626 40
627 2
628 40
629 40
630 10
631 2
632 2
633 2
634 1
635 20
636 10
637 2
638 2
639 1
640 20
641 10
642 2
643 2
644 1
645 40
646 40
647 10
648 2
649 2
650 40
651 40
652 10
653 1
654 40
655 10
656 2
657 20
658 2
659 2
660 2
661 2
662 1
663 40
664 40
665 2
666 2
667 1
668 20
669 2
670 2
671 2
672 1
673 40
674 10
675 2
676 2
677 1
678 40
679 10
680 40
681 40
682 2
683 1
684 40
685 10
686 2
687 2
688 2
689 2
690 40
691 20
692 2
693 2
694 1
695 40
696 20
697 2
698 2
699 2
700 2
DEPOT_SECTION
1
-1
EOF