SDVRP instances/custom_instances/p04_29_split0.sol
699 -28 27 29 25 26 506 504 503 505 403 400 399 398 -36 37 493 492 490 491 99 102 97 98 101 100 522 526 -51 52 50 396 391 394 256 254 257 253 255 252 -53 54 499 498 120 122 119 121 123 118 494 497 495 496 -61 59 60 58 565 566 567 568 426 423 -63 64 62 65 250 246 249 251 247 563 564 562 -66 191 190 194 195 193 192 472 471 470 469 473 -70 67 69 71 68 410 405 404 406 407 409 408 382 381 442 441 440 -81 82 452 454 456 455 453 220 219 218 -86 84 449 444 446 445 447 443 448 609 608 607 610 611 612 -87 85 83 302 304 305 303 301 166 165 171 168 167 169 170 -90 91 89 88 264 268 267 266 265 263 646 647 648 645 -93 95 588 587 586 589 680 681 679 682 694 -96 94 92 38 41 44 42 40 43 39 668 671 667 669 670 596 595 600 597 594 599 598 -109 110 108 106 107 318 322 320 319 321 653 -128 129 124 130 126 127 125 207 208 209 206 655 654 -131 133 137 132 516 517 515 514 513 527 530 532 528 529 531 -145 143 144 242 241 245 244 243 699 695 698 -149 148 147 150 146 152 151 583 579 580 581 584 582 585 -157 159 158 156 414 411 413 412 416 415 14 13 75 76 72 73 74 601 604 603 602 -163 221 224 223 222 172 173 176 175 174 -164 525 523 524 227 225 226 291 289 292 293 290 288 328 331 332 333 329 330 -181 180 182 184 183 185 462 463 461 -189 187 186 188 162 160 161 361 360 359 358 362 574 575 -202 205 203 204 201 15 16 590 591 593 -216 234 233 235 693 690 691 692 689 559 558 557 -217 215 214 298 297 299 300 402 401 397 -230 231 688 684 685 683 23 21 24 22 19 17 18 20 623 619 618 -232 228 229 479 642 640 643 641 639 644 -248 547 546 545 544 548 4 3 1 5 2 348 347 350 349 345 346 344 571 572 -259 261 262 260 258 533 536 535 534 439 436 435 437 438 -272 275 269 273 270 274 271 310 312 307 306 308 309 311 465 466 -277 280 279 281 278 276 649 650 651 652 -294 296 295 551 549 550 552 136 134 135 573 569 570 -317 316 315 313 314 352 351 353 354 9 11 12 10 509 510 512 -326 341 343 342 468 464 467 629 626 625 -335 334 430 432 678 677 451 450 -339 340 672 676 673 675 674 537 543 540 541 539 538 542 -357 356 116 113 111 115 117 112 114 210 211 212 213 369 370 372 687 686 -373 368 371 32 30 34 33 35 31 179 177 178 622 624 620 621 -378 379 377 380 376 375 374 459 460 458 457 46 47 45 49 48 393 395 392 -388 383 390 387 385 386 389 384 638 637 634 636 635 662 666 665 663 664 -420 422 421 419 57 55 56 6 8 7 576 577 578 -425 428 424 427 429 104 103 105 336 337 338 660 661 656 657 659 658 -431 434 433 153 154 155 518 521 520 519 -475 477 418 417 325 324 327 323 627 632 633 631 630 628 -476 478 474 141 139 142 138 140 511 508 507 -480 482 481 355 77 79 80 78 236 238 239 240 237 697 696 -500 502 484 487 501 488 489 483 485 486 200 197 196 198 199 614 -561 560 287 285 286 283 282 284 553 555 556 554 592 -606 605 367 364 363 366 365 613 615 617 616 0 





OBJ=
4540.607
BEST_KNOWN=
0.000